COLUMNS

passenger_count
pickup_ID
dropoff_ID
request_time_sec
pickup_district
dropoff_district
LDuals
IDuals
vehicle_ID
pick_position
drop_position

REQUESTS_INFO
1      1031      851       30683     50        291       135       135       42        1         3         
1      598       649       30669     189       189       162       162       67        1         3         
1      200       270       30661     87        127       202       202       167       1         3         
3      345       350       30683     299       127       150       150       226       1         2         
1      884       696       30685     290       189       119       119       231       1         4         
2      505       676       30651     52        189       172       172       256       1         3         
1      643       640       30685     131       131       81        81        269       1         2         
3      771       375       30680     290       119       109       109       285       1         3         
3      669       11        30648     280       999       144       144       310       1         2         
4      553       616       30686     189       131       111       111       330       1         2         
1      442       254       30684     168       87        115       115       396       1         3         
1      1132      882       30669     291       290       120.5     120.5     419       1         2         
1      501       462       30640     52        189       248       248       487       1         2         
1      761       1010      30670     50        290       133       133       508       1         3         
1      923       463       30666     290       168       162       162       512       1         3         
1      348       486       30688     299       199       142       142       549       1         2         
1      456       439       30672     52        189       140       140       551       1         2         
1      944       550       30687     50        189       117       117       583       1         3         
3      527       675       30637     52        189       214       214       663       1         2         
4      745       599       30679     290       280       123       123       744       1         2         
3      734       529       30681     131       189       128       128       756       1         2         
1      882       836       30686     290       290       84        84        783       1         2         
1      215       175       30679     178       266       132       132       795       1         2         
1      421       10        30682     168       98        155       155       802       1         2         
1      772       669       30668     290       280       121       121       817       1         3         
3      980       648       30537     291       189       312.5     312.5     820       1         2         
2      874       738       30595     291       189       250       250       830       1         2         
1      761       805       30627     50        291       177       177       904       1         2         
1      938       1086      30659     291       291       195.5     195.5     982       1         2         
1      924       1357      30686     290       129       109       109       1027      1         3         
2      1065      662       30634     291       131       207       207       1048      1         2         
1      369       628       30663     52        189       156       156       1068      1         2         
3      1001      980       30673     291       291       185       185       1071      1         2         
2      734       529       30681     131       189       128       128       1082      1         2         
3      549       628       30673     52        189       159       159       1099      1         3         
2      961       915       30597     291       291       260       260       1153      1         2         
3      1001      980       30673     291       291       185       185       1245      1         2         
1      873       940       30649     291       291       190       190       1271      1         2         
3      375       726       30672     119       290       157       157       1287      1         2         
2      458       734       30660     52        131       170       170       1300      1         2         
1      578       527       30665     189       52        123       123       1385      1         3         
1      330       556       30689     127       199       156       156       1445      1         2         
1      642       272       30672     131       127       116       116       1504      1         3         
1      549       138       30658     52        57        153       153       1748      1         3         
3      552       670       30669     189       280       163       163       1815      1         3         
1      373       533       30662     119       199       152       152       1819      1         2         
1      836       378       30674     290       168       121       121       1832      1         3         
1      256       716       30669     87        189       176       176       1843      1         2         
3      433       621       30675     52        280       135       135       1853      1         2         
1      345       171       30685     299       286       173       173       1864      1         2         
1      839       951       30663     290       290       169       169       1873      1         2         
1      778       376       30672     131       168       109       109       1906      1         4         
3      527       311       30686     52        87        174       174       1932      1         3         
1      1044      771       30611     291       290       226       226       1945      1         3         
2      330       462       30679     127       189       166       166       1958      1         2         
1      393       670       30686     52        280       159       159       1980      1         3         
1      945       674       30690     50        189       0         0         0         0         0         
4      620       416       30690     131       100       0         0         0         0         0         
2      794       250       30691     290       127       0         0         0         0         0         
1      310       117       30691     127       286       0         0         0         0         0         
4      267       116       30691     266       9         0         0         0         0         0         
1      308       604       30691     127       189       0         0         0         0         0         
1      460       394       30691     189       100       0         0         0         0         0         
1      691       703       30691     131       290       0         0         0         0         0         
1      287       451       30691     299       999       0         0         0         0         0         
1      354       604       30691     119       189       0         0         0         0         0         
1      351       574       30692     52        189       0         0         0         0         0         
1      568       1065      30692     52        291       0         0         0         0         0         
1      607       416       30692     189       100       0         0         0         0         0         
1      504       368       30692     52        299       0         0         0         0         0         
4      718       1005      30692     189       50        0         0         0         0         0         
2      291       416       30693     87        100       0         0         0         0         0         
3      444       604       30693     168       189       0         0         0         0         0         
1      65        314       30693     98        119       0         0         0         0         0         
1      654       772       30693     189       290       0         0         0         0         0         
1      701       726       30694     290       290       0         0         0         0         0         
1      726       554       30694     290       189       0         0         0         0         0         
1      512       627       30694     199       189       0         0         0         0         0         
3      460       358       30694     189       168       0         0         0         0         0         
3      460       358       30694     189       168       0         0         0         0         0         
3      43        391       30694     9         52        0         0         0         0         0         
3      43        391       30694     9         52        0         0         0         0         0         
1      905       35        30695     290       98        0         0         0         0         0         
3      946       507       30695     290       189       0         0         0         0         0         
3      946       507       30695     290       189       0         0         0         0         0         
3      464       327       30696     168       299       0         0         0         0         0         
3      464       327       30696     168       299       0         0         0         0         0         
1      723       1011      30696     290       84        0         0         0         0         0         
1      275       617       30696     87        131       0         0         0         0         0         
1      702       859       30696     290       290       0         0         0         0         0         
1      194       627       30696     207       189       0         0         0         0         0         
1      466       1530      30697     199       296       0         0         0         0         0         
1      573       604       30697     189       189       0         0         0         0         0         
1      233       579       30697     206       189       0         0         0         0         0         
1      745       627       30697     290       189       0         0         0         0         0         
4      675       723       30697     189       290       0         0         0         0         0         
1      120       352       30697     57        119       0         0         0         0         0         
1      483       581       30697     189       189       0         0         0         0         0         
1      527       604       30698     52        189       0         0         0         0         0         
1      745       604       30698     290       189       0         0         0         0         0         
1      527       439       30698     52        189       0         0         0         0         0         
1      903       839       30698     290       290       0         0         0         0         0         
4      693       629       30698     280       189       0         0         0         0         0         
2      410       652       30698     52        189       0         0         0         0         0         
3      410       652       30698     52        189       0         0         0         0         0         
1      523       388       30698     52        299       0         0         0         0         0         
1      485       248       30699     189       266       0         0         0         0         0         
4      286       597       30699     299       131       0         0         0         0         0         
1      972       631       30699     290       189       0         0         0         0         0         
1      598       581       30699     189       189       0         0         0         0         0         
1      768       575       30699     290       189       0         0         0         0         0         
1      238       331       30699     87        127       0         0         0         0         0         
3      755       43        30700     131       9         0         0         0         0         0         
2      755       43        30700     131       9         0         0         0         0         0         
1      813       483       30700     290       189       0         0         0         0         0         
1      983       674       30700     291       189       0         0         0         0         0         
1      772       605       30700     290       189       0         0         0         0         0         
1      603       697       30700     189       189       0         0         0         0         0         
1      304       118       30701     299       286       0         0         0         0         0         
1      745       835       30701     290       290       0         0         0         0         0         
1      981       717       30701     291       189       0         0         0         0         0         
1      233       252       30701     206       206       0         0         0         0         0         
1      646       616       30701     280       131       0         0         0         0         0         
1      721       749       30701     290       290       0         0         0         0         0         
2      600       79        30701     280       98        0         0         0         0         0         
1      646       616       30701     280       131       0         0         0         0         0         
1      353       463       30701     119       168       0         0         0         0         0         
1      735       577       30702     131       189       0         0         0         0         0         
1      584       377       30702     189       168       0         0         0         0         0         
1      485       335       30702     189       119       0         0         0         0         0         
1      556       189       30702     199       286       0         0         0         0         0         
2      408       20        30702     299       98        0         0         0         0         0         
1      791       905       30702     290       290       0         0         0         0         0         
2      485       350       30702     189       127       0         0         0         0         0         
3      485       350       30702     189       127       0         0         0         0         0         
1      723       690       30703     290       131       0         0         0         0         0         
1      296       350       30703     277       127       0         0         0         0         0         
1      1181      1181      30703     84        84        0         0         0         0         0         
1      599       461       30703     280       189       0         0         0         0         0         
1      557       727       30703     189       290       0         0         0         0         0         
1      849       603       30703     291       189       0         0         0         0         0         
3      395       377       30704     100       168       0         0         0         0         0         
2      395       377       30704     100       168       0         0         0         0         0         
3      286       533       30704     299       199       0         0         0         0         0         
3      286       533       30704     299       199       0         0         0         0         0         
1      527       438       30704     52        100       0         0         0         0         0         
1      904       769       30704     290       290       0         0         0         0         0         
1      560       652       30704     189       189       0         0         0         0         0         
1      60        506       30704     9         189       0         0         0         0         0         
1      881       1010      30704     290       290       0         0         0         0         0         
1      959       669       30705     291       280       0         0         0         0         0         
1      852       905       30706     291       290       0         0         0         0         0         
1      702       557       30706     290       189       0         0         0         0         0         
2      330       698       30706     127       189       0         0         0         0         0         
3      528       581       30706     52        189       0         0         0         0         0         
1      1001      602       30706     291       189       0         0         0         0         0         
2      1132      1032      30706     291       84        0         0         0         0         0         
1      457       410       30706     52        52        0         0         0         0         0         
3      645       639       30707     280       131       0         0         0         0         0         
1      499       555       30707     52        199       0         0         0         0         0         
2      745       758       30707     290       131       0         0         0         0         0         
1      1022      1010      30707     291       290       0         0         0         0         0         
1      949       79        30707     290       98        0         0         0         0         0         
1      673       267       30708     189       266       0         0         0         0         0         
1      441       629       30708     168       189       0         0         0         0         0         
3      63        349       30708     98        127       0         0         0         0         0         
1      486       629       30708     199       189       0         0         0         0         0         
1      509       576       30708     199       189       0         0         0         0         0         
1      947       804       30708     290       291       0         0         0         0         0         
2      31        526       30708     9         52        0         0         0         0         0         
2      504       436       30708     52        100       0         0         0         0         0         
3      504       436       30708     52        100       0         0         0         0         0         
2      65        78        30709     98        9         0         0         0         0         0         
1      369       430       30709     52        52        0         0         0         0         0         
2      558       651       30710     189       189       0         0         0         0         0         
3      558       651       30710     189       189       0         0         0         0         0         
2      961       527       30710     291       52        0         0         0         0         0         
1      330       134       30711     127       9         0         0         0         0         0         
1      412       737       30711     52        189       0         0         0         0         0         
1      813       926       30711     290       290       0         0         0         0         0         
1      484       333       30711     189       119       0         0         0         0         0         
1      533       506       30711     199       189       0         0         0         0         0         
1      373       504       30711     119       52        0         0         0         0         0         
1      484       628       30712     189       189       0         0         0         0         0         
1      328       511       30712     299       199       0         0         0         0         0         
1      609       698       30712     189       189       0         0         0         0         0         
1      925       626       30712     290       189       0         0         0         0         0         
1      597       568       30712     131       52        0         0         0         0         0         
1      465       96        30712     199       9         0         0         0         0         0         
1      387       533       30712     299       199       0         0         0         0         0         
1      654       398       30713     189       168       0         0         0         0         0         
1      510       479       30713     199       52        0         0         0         0         0         
1      850       96        30713     291       9         0         0         0         0         0         
1      748       32        30713     290       98        0         0         0         0         0         
1      467       651       30713     999       189       0         0         0         0         0         
1      598       674       30713     189       189       0         0         0         0         0         
1      556       718       30715     199       189       0         0         0         0         0         
1      483       593       30715     189       52        0         0         0         0         0         
1      772       558       30715     290       189       0         0         0         0         0         
1      735       643       30715     131       131       0         0         0         0         0         
1      464       417       30715     168       100       0         0         0         0         0         
1      924       1010      30716     290       290       0         0         0         0         0         
1      881       649       30716     290       189       0         0         0         0         0         
1      345       116       30716     299       9         0         0         0         0         0         
1      685       134       30716     999       9         0         0         0         0         0         
2      1111      1045      30716     50        291       0         0         0         0         0         
1      644       715       30716     131       131       0         0         0         0         0         
1      556       79        30717     199       98        0         0         0         0         0         
1      838       119       30717     290       286       0         0         0         0         0         
1      369       458       30717     52        52        0         0         0         0         0         
1      839       488       30717     290       199       0         0         0         0         0         
1      461       627       30717     189       189       0         0         0         0         0         
2      894       603       30717     291       189       0         0         0         0         0         
1      115       456       30717     9         52        0         0         0         0         0         
1      559       459       30718     189       189       0         0         0         0         0         
1      1068      735       30718     291       131       0         0         0         0         0         
3      534       580       30718     199       189       0         0         0         0         0         
2      769       488       30719     290       199       0         0         0         0         0         
1      466       47        30719     199       98        0         0         0         0         0         
1      511       604       30719     199       189       0         0         0         0         0         
